c *********************************
c * Circuit generated by BenCGen
c *
c * CarrySaveAdder_143_143_143_143_144
c *
c * Ports with 1 gate(s): 2
c * Ports with 2 gate(s): 716
c * Total gates: 718
c *********************************
p cnf 1147 2438
1 718 0
-1 -718 0
1 -717 0
718 -717 0
-1 -718 717 0
717 -573 0
-717 573 0
1 144 -719 0
-1 144 719 0
1 -144 719 0
-1 -144 -719 0
719 287 -430 0
-719 287 430 0
719 -287 430 0
-719 -287 -430 0
287 -720 0
719 -720 0
-287 -719 720 0
144 -721 0
1 -721 0
-144 -1 721 0
-720 574 0
-721 574 0
720 721 -574 0
2 145 -722 0
-2 145 722 0
2 -145 722 0
-2 -145 -722 0
722 288 -431 0
-722 288 431 0
722 -288 431 0
-722 -288 -431 0
288 -723 0
722 -723 0
-288 -722 723 0
145 -724 0
2 -724 0
-145 -2 724 0
-723 575 0
-724 575 0
723 724 -575 0
3 146 -725 0
-3 146 725 0
3 -146 725 0
-3 -146 -725 0
725 289 -432 0
-725 289 432 0
725 -289 432 0
-725 -289 -432 0
289 -726 0
725 -726 0
-289 -725 726 0
146 -727 0
3 -727 0
-146 -3 727 0
-726 576 0
-727 576 0
726 727 -576 0
4 147 -728 0
-4 147 728 0
4 -147 728 0
-4 -147 -728 0
728 290 -433 0
-728 290 433 0
728 -290 433 0
-728 -290 -433 0
290 -729 0
728 -729 0
-290 -728 729 0
147 -730 0
4 -730 0
-147 -4 730 0
-729 577 0
-730 577 0
729 730 -577 0
5 148 -731 0
-5 148 731 0
5 -148 731 0
-5 -148 -731 0
731 291 -434 0
-731 291 434 0
731 -291 434 0
-731 -291 -434 0
291 -732 0
731 -732 0
-291 -731 732 0
148 -733 0
5 -733 0
-148 -5 733 0
-732 578 0
-733 578 0
732 733 -578 0
6 149 -734 0
-6 149 734 0
6 -149 734 0
-6 -149 -734 0
734 292 -435 0
-734 292 435 0
734 -292 435 0
-734 -292 -435 0
292 -735 0
734 -735 0
-292 -734 735 0
149 -736 0
6 -736 0
-149 -6 736 0
-735 579 0
-736 579 0
735 736 -579 0
7 150 -737 0
-7 150 737 0
7 -150 737 0
-7 -150 -737 0
737 293 -436 0
-737 293 436 0
737 -293 436 0
-737 -293 -436 0
293 -738 0
737 -738 0
-293 -737 738 0
150 -739 0
7 -739 0
-150 -7 739 0
-738 580 0
-739 580 0
738 739 -580 0
8 151 -740 0
-8 151 740 0
8 -151 740 0
-8 -151 -740 0
740 294 -437 0
-740 294 437 0
740 -294 437 0
-740 -294 -437 0
294 -741 0
740 -741 0
-294 -740 741 0
151 -742 0
8 -742 0
-151 -8 742 0
-741 581 0
-742 581 0
741 742 -581 0
9 152 -743 0
-9 152 743 0
9 -152 743 0
-9 -152 -743 0
743 295 -438 0
-743 295 438 0
743 -295 438 0
-743 -295 -438 0
295 -744 0
743 -744 0
-295 -743 744 0
152 -745 0
9 -745 0
-152 -9 745 0
-744 582 0
-745 582 0
744 745 -582 0
10 153 -746 0
-10 153 746 0
10 -153 746 0
-10 -153 -746 0
746 296 -439 0
-746 296 439 0
746 -296 439 0
-746 -296 -439 0
296 -747 0
746 -747 0
-296 -746 747 0
153 -748 0
10 -748 0
-153 -10 748 0
-747 583 0
-748 583 0
747 748 -583 0
11 154 -749 0
-11 154 749 0
11 -154 749 0
-11 -154 -749 0
749 297 -440 0
-749 297 440 0
749 -297 440 0
-749 -297 -440 0
297 -750 0
749 -750 0
-297 -749 750 0
154 -751 0
11 -751 0
-154 -11 751 0
-750 584 0
-751 584 0
750 751 -584 0
12 155 -752 0
-12 155 752 0
12 -155 752 0
-12 -155 -752 0
752 298 -441 0
-752 298 441 0
752 -298 441 0
-752 -298 -441 0
298 -753 0
752 -753 0
-298 -752 753 0
155 -754 0
12 -754 0
-155 -12 754 0
-753 585 0
-754 585 0
753 754 -585 0
13 156 -755 0
-13 156 755 0
13 -156 755 0
-13 -156 -755 0
755 299 -442 0
-755 299 442 0
755 -299 442 0
-755 -299 -442 0
299 -756 0
755 -756 0
-299 -755 756 0
156 -757 0
13 -757 0
-156 -13 757 0
-756 586 0
-757 586 0
756 757 -586 0
14 157 -758 0
-14 157 758 0
14 -157 758 0
-14 -157 -758 0
758 300 -443 0
-758 300 443 0
758 -300 443 0
-758 -300 -443 0
300 -759 0
758 -759 0
-300 -758 759 0
157 -760 0
14 -760 0
-157 -14 760 0
-759 587 0
-760 587 0
759 760 -587 0
15 158 -761 0
-15 158 761 0
15 -158 761 0
-15 -158 -761 0
761 301 -444 0
-761 301 444 0
761 -301 444 0
-761 -301 -444 0
301 -762 0
761 -762 0
-301 -761 762 0
158 -763 0
15 -763 0
-158 -15 763 0
-762 588 0
-763 588 0
762 763 -588 0
16 159 -764 0
-16 159 764 0
16 -159 764 0
-16 -159 -764 0
764 302 -445 0
-764 302 445 0
764 -302 445 0
-764 -302 -445 0
302 -765 0
764 -765 0
-302 -764 765 0
159 -766 0
16 -766 0
-159 -16 766 0
-765 589 0
-766 589 0
765 766 -589 0
17 160 -767 0
-17 160 767 0
17 -160 767 0
-17 -160 -767 0
767 303 -446 0
-767 303 446 0
767 -303 446 0
-767 -303 -446 0
303 -768 0
767 -768 0
-303 -767 768 0
160 -769 0
17 -769 0
-160 -17 769 0
-768 590 0
-769 590 0
768 769 -590 0
18 161 -770 0
-18 161 770 0
18 -161 770 0
-18 -161 -770 0
770 304 -447 0
-770 304 447 0
770 -304 447 0
-770 -304 -447 0
304 -771 0
770 -771 0
-304 -770 771 0
161 -772 0
18 -772 0
-161 -18 772 0
-771 591 0
-772 591 0
771 772 -591 0
19 162 -773 0
-19 162 773 0
19 -162 773 0
-19 -162 -773 0
773 305 -448 0
-773 305 448 0
773 -305 448 0
-773 -305 -448 0
305 -774 0
773 -774 0
-305 -773 774 0
162 -775 0
19 -775 0
-162 -19 775 0
-774 592 0
-775 592 0
774 775 -592 0
20 163 -776 0
-20 163 776 0
20 -163 776 0
-20 -163 -776 0
776 306 -449 0
-776 306 449 0
776 -306 449 0
-776 -306 -449 0
306 -777 0
776 -777 0
-306 -776 777 0
163 -778 0
20 -778 0
-163 -20 778 0
-777 593 0
-778 593 0
777 778 -593 0
21 164 -779 0
-21 164 779 0
21 -164 779 0
-21 -164 -779 0
779 307 -450 0
-779 307 450 0
779 -307 450 0
-779 -307 -450 0
307 -780 0
779 -780 0
-307 -779 780 0
164 -781 0
21 -781 0
-164 -21 781 0
-780 594 0
-781 594 0
780 781 -594 0
22 165 -782 0
-22 165 782 0
22 -165 782 0
-22 -165 -782 0
782 308 -451 0
-782 308 451 0
782 -308 451 0
-782 -308 -451 0
308 -783 0
782 -783 0
-308 -782 783 0
165 -784 0
22 -784 0
-165 -22 784 0
-783 595 0
-784 595 0
783 784 -595 0
23 166 -785 0
-23 166 785 0
23 -166 785 0
-23 -166 -785 0
785 309 -452 0
-785 309 452 0
785 -309 452 0
-785 -309 -452 0
309 -786 0
785 -786 0
-309 -785 786 0
166 -787 0
23 -787 0
-166 -23 787 0
-786 596 0
-787 596 0
786 787 -596 0
24 167 -788 0
-24 167 788 0
24 -167 788 0
-24 -167 -788 0
788 310 -453 0
-788 310 453 0
788 -310 453 0
-788 -310 -453 0
310 -789 0
788 -789 0
-310 -788 789 0
167 -790 0
24 -790 0
-167 -24 790 0
-789 597 0
-790 597 0
789 790 -597 0
25 168 -791 0
-25 168 791 0
25 -168 791 0
-25 -168 -791 0
791 311 -454 0
-791 311 454 0
791 -311 454 0
-791 -311 -454 0
311 -792 0
791 -792 0
-311 -791 792 0
168 -793 0
25 -793 0
-168 -25 793 0
-792 598 0
-793 598 0
792 793 -598 0
26 169 -794 0
-26 169 794 0
26 -169 794 0
-26 -169 -794 0
794 312 -455 0
-794 312 455 0
794 -312 455 0
-794 -312 -455 0
312 -795 0
794 -795 0
-312 -794 795 0
169 -796 0
26 -796 0
-169 -26 796 0
-795 599 0
-796 599 0
795 796 -599 0
27 170 -797 0
-27 170 797 0
27 -170 797 0
-27 -170 -797 0
797 313 -456 0
-797 313 456 0
797 -313 456 0
-797 -313 -456 0
313 -798 0
797 -798 0
-313 -797 798 0
170 -799 0
27 -799 0
-170 -27 799 0
-798 600 0
-799 600 0
798 799 -600 0
28 171 -800 0
-28 171 800 0
28 -171 800 0
-28 -171 -800 0
800 314 -457 0
-800 314 457 0
800 -314 457 0
-800 -314 -457 0
314 -801 0
800 -801 0
-314 -800 801 0
171 -802 0
28 -802 0
-171 -28 802 0
-801 601 0
-802 601 0
801 802 -601 0
29 172 -803 0
-29 172 803 0
29 -172 803 0
-29 -172 -803 0
803 315 -458 0
-803 315 458 0
803 -315 458 0
-803 -315 -458 0
315 -804 0
803 -804 0
-315 -803 804 0
172 -805 0
29 -805 0
-172 -29 805 0
-804 602 0
-805 602 0
804 805 -602 0
30 173 -806 0
-30 173 806 0
30 -173 806 0
-30 -173 -806 0
806 316 -459 0
-806 316 459 0
806 -316 459 0
-806 -316 -459 0
316 -807 0
806 -807 0
-316 -806 807 0
173 -808 0
30 -808 0
-173 -30 808 0
-807 603 0
-808 603 0
807 808 -603 0
31 174 -809 0
-31 174 809 0
31 -174 809 0
-31 -174 -809 0
809 317 -460 0
-809 317 460 0
809 -317 460 0
-809 -317 -460 0
317 -810 0
809 -810 0
-317 -809 810 0
174 -811 0
31 -811 0
-174 -31 811 0
-810 604 0
-811 604 0
810 811 -604 0
32 175 -812 0
-32 175 812 0
32 -175 812 0
-32 -175 -812 0
812 318 -461 0
-812 318 461 0
812 -318 461 0
-812 -318 -461 0
318 -813 0
812 -813 0
-318 -812 813 0
175 -814 0
32 -814 0
-175 -32 814 0
-813 605 0
-814 605 0
813 814 -605 0
33 176 -815 0
-33 176 815 0
33 -176 815 0
-33 -176 -815 0
815 319 -462 0
-815 319 462 0
815 -319 462 0
-815 -319 -462 0
319 -816 0
815 -816 0
-319 -815 816 0
176 -817 0
33 -817 0
-176 -33 817 0
-816 606 0
-817 606 0
816 817 -606 0
34 177 -818 0
-34 177 818 0
34 -177 818 0
-34 -177 -818 0
818 320 -463 0
-818 320 463 0
818 -320 463 0
-818 -320 -463 0
320 -819 0
818 -819 0
-320 -818 819 0
177 -820 0
34 -820 0
-177 -34 820 0
-819 607 0
-820 607 0
819 820 -607 0
35 178 -821 0
-35 178 821 0
35 -178 821 0
-35 -178 -821 0
821 321 -464 0
-821 321 464 0
821 -321 464 0
-821 -321 -464 0
321 -822 0
821 -822 0
-321 -821 822 0
178 -823 0
35 -823 0
-178 -35 823 0
-822 608 0
-823 608 0
822 823 -608 0
36 179 -824 0
-36 179 824 0
36 -179 824 0
-36 -179 -824 0
824 322 -465 0
-824 322 465 0
824 -322 465 0
-824 -322 -465 0
322 -825 0
824 -825 0
-322 -824 825 0
179 -826 0
36 -826 0
-179 -36 826 0
-825 609 0
-826 609 0
825 826 -609 0
37 180 -827 0
-37 180 827 0
37 -180 827 0
-37 -180 -827 0
827 323 -466 0
-827 323 466 0
827 -323 466 0
-827 -323 -466 0
323 -828 0
827 -828 0
-323 -827 828 0
180 -829 0
37 -829 0
-180 -37 829 0
-828 610 0
-829 610 0
828 829 -610 0
38 181 -830 0
-38 181 830 0
38 -181 830 0
-38 -181 -830 0
830 324 -467 0
-830 324 467 0
830 -324 467 0
-830 -324 -467 0
324 -831 0
830 -831 0
-324 -830 831 0
181 -832 0
38 -832 0
-181 -38 832 0
-831 611 0
-832 611 0
831 832 -611 0
39 182 -833 0
-39 182 833 0
39 -182 833 0
-39 -182 -833 0
833 325 -468 0
-833 325 468 0
833 -325 468 0
-833 -325 -468 0
325 -834 0
833 -834 0
-325 -833 834 0
182 -835 0
39 -835 0
-182 -39 835 0
-834 612 0
-835 612 0
834 835 -612 0
40 183 -836 0
-40 183 836 0
40 -183 836 0
-40 -183 -836 0
836 326 -469 0
-836 326 469 0
836 -326 469 0
-836 -326 -469 0
326 -837 0
836 -837 0
-326 -836 837 0
183 -838 0
40 -838 0
-183 -40 838 0
-837 613 0
-838 613 0
837 838 -613 0
41 184 -839 0
-41 184 839 0
41 -184 839 0
-41 -184 -839 0
839 327 -470 0
-839 327 470 0
839 -327 470 0
-839 -327 -470 0
327 -840 0
839 -840 0
-327 -839 840 0
184 -841 0
41 -841 0
-184 -41 841 0
-840 614 0
-841 614 0
840 841 -614 0
42 185 -842 0
-42 185 842 0
42 -185 842 0
-42 -185 -842 0
842 328 -471 0
-842 328 471 0
842 -328 471 0
-842 -328 -471 0
328 -843 0
842 -843 0
-328 -842 843 0
185 -844 0
42 -844 0
-185 -42 844 0
-843 615 0
-844 615 0
843 844 -615 0
43 186 -845 0
-43 186 845 0
43 -186 845 0
-43 -186 -845 0
845 329 -472 0
-845 329 472 0
845 -329 472 0
-845 -329 -472 0
329 -846 0
845 -846 0
-329 -845 846 0
186 -847 0
43 -847 0
-186 -43 847 0
-846 616 0
-847 616 0
846 847 -616 0
44 187 -848 0
-44 187 848 0
44 -187 848 0
-44 -187 -848 0
848 330 -473 0
-848 330 473 0
848 -330 473 0
-848 -330 -473 0
330 -849 0
848 -849 0
-330 -848 849 0
187 -850 0
44 -850 0
-187 -44 850 0
-849 617 0
-850 617 0
849 850 -617 0
45 188 -851 0
-45 188 851 0
45 -188 851 0
-45 -188 -851 0
851 331 -474 0
-851 331 474 0
851 -331 474 0
-851 -331 -474 0
331 -852 0
851 -852 0
-331 -851 852 0
188 -853 0
45 -853 0
-188 -45 853 0
-852 618 0
-853 618 0
852 853 -618 0
46 189 -854 0
-46 189 854 0
46 -189 854 0
-46 -189 -854 0
854 332 -475 0
-854 332 475 0
854 -332 475 0
-854 -332 -475 0
332 -855 0
854 -855 0
-332 -854 855 0
189 -856 0
46 -856 0
-189 -46 856 0
-855 619 0
-856 619 0
855 856 -619 0
47 190 -857 0
-47 190 857 0
47 -190 857 0
-47 -190 -857 0
857 333 -476 0
-857 333 476 0
857 -333 476 0
-857 -333 -476 0
333 -858 0
857 -858 0
-333 -857 858 0
190 -859 0
47 -859 0
-190 -47 859 0
-858 620 0
-859 620 0
858 859 -620 0
48 191 -860 0
-48 191 860 0
48 -191 860 0
-48 -191 -860 0
860 334 -477 0
-860 334 477 0
860 -334 477 0
-860 -334 -477 0
334 -861 0
860 -861 0
-334 -860 861 0
191 -862 0
48 -862 0
-191 -48 862 0
-861 621 0
-862 621 0
861 862 -621 0
49 192 -863 0
-49 192 863 0
49 -192 863 0
-49 -192 -863 0
863 335 -478 0
-863 335 478 0
863 -335 478 0
-863 -335 -478 0
335 -864 0
863 -864 0
-335 -863 864 0
192 -865 0
49 -865 0
-192 -49 865 0
-864 622 0
-865 622 0
864 865 -622 0
50 193 -866 0
-50 193 866 0
50 -193 866 0
-50 -193 -866 0
866 336 -479 0
-866 336 479 0
866 -336 479 0
-866 -336 -479 0
336 -867 0
866 -867 0
-336 -866 867 0
193 -868 0
50 -868 0
-193 -50 868 0
-867 623 0
-868 623 0
867 868 -623 0
51 194 -869 0
-51 194 869 0
51 -194 869 0
-51 -194 -869 0
869 337 -480 0
-869 337 480 0
869 -337 480 0
-869 -337 -480 0
337 -870 0
869 -870 0
-337 -869 870 0
194 -871 0
51 -871 0
-194 -51 871 0
-870 624 0
-871 624 0
870 871 -624 0
52 195 -872 0
-52 195 872 0
52 -195 872 0
-52 -195 -872 0
872 338 -481 0
-872 338 481 0
872 -338 481 0
-872 -338 -481 0
338 -873 0
872 -873 0
-338 -872 873 0
195 -874 0
52 -874 0
-195 -52 874 0
-873 625 0
-874 625 0
873 874 -625 0
53 196 -875 0
-53 196 875 0
53 -196 875 0
-53 -196 -875 0
875 339 -482 0
-875 339 482 0
875 -339 482 0
-875 -339 -482 0
339 -876 0
875 -876 0
-339 -875 876 0
196 -877 0
53 -877 0
-196 -53 877 0
-876 626 0
-877 626 0
876 877 -626 0
54 197 -878 0
-54 197 878 0
54 -197 878 0
-54 -197 -878 0
878 340 -483 0
-878 340 483 0
878 -340 483 0
-878 -340 -483 0
340 -879 0
878 -879 0
-340 -878 879 0
197 -880 0
54 -880 0
-197 -54 880 0
-879 627 0
-880 627 0
879 880 -627 0
55 198 -881 0
-55 198 881 0
55 -198 881 0
-55 -198 -881 0
881 341 -484 0
-881 341 484 0
881 -341 484 0
-881 -341 -484 0
341 -882 0
881 -882 0
-341 -881 882 0
198 -883 0
55 -883 0
-198 -55 883 0
-882 628 0
-883 628 0
882 883 -628 0
56 199 -884 0
-56 199 884 0
56 -199 884 0
-56 -199 -884 0
884 342 -485 0
-884 342 485 0
884 -342 485 0
-884 -342 -485 0
342 -885 0
884 -885 0
-342 -884 885 0
199 -886 0
56 -886 0
-199 -56 886 0
-885 629 0
-886 629 0
885 886 -629 0
57 200 -887 0
-57 200 887 0
57 -200 887 0
-57 -200 -887 0
887 343 -486 0
-887 343 486 0
887 -343 486 0
-887 -343 -486 0
343 -888 0
887 -888 0
-343 -887 888 0
200 -889 0
57 -889 0
-200 -57 889 0
-888 630 0
-889 630 0
888 889 -630 0
58 201 -890 0
-58 201 890 0
58 -201 890 0
-58 -201 -890 0
890 344 -487 0
-890 344 487 0
890 -344 487 0
-890 -344 -487 0
344 -891 0
890 -891 0
-344 -890 891 0
201 -892 0
58 -892 0
-201 -58 892 0
-891 631 0
-892 631 0
891 892 -631 0
59 202 -893 0
-59 202 893 0
59 -202 893 0
-59 -202 -893 0
893 345 -488 0
-893 345 488 0
893 -345 488 0
-893 -345 -488 0
345 -894 0
893 -894 0
-345 -893 894 0
202 -895 0
59 -895 0
-202 -59 895 0
-894 632 0
-895 632 0
894 895 -632 0
60 203 -896 0
-60 203 896 0
60 -203 896 0
-60 -203 -896 0
896 346 -489 0
-896 346 489 0
896 -346 489 0
-896 -346 -489 0
346 -897 0
896 -897 0
-346 -896 897 0
203 -898 0
60 -898 0
-203 -60 898 0
-897 633 0
-898 633 0
897 898 -633 0
61 204 -899 0
-61 204 899 0
61 -204 899 0
-61 -204 -899 0
899 347 -490 0
-899 347 490 0
899 -347 490 0
-899 -347 -490 0
347 -900 0
899 -900 0
-347 -899 900 0
204 -901 0
61 -901 0
-204 -61 901 0
-900 634 0
-901 634 0
900 901 -634 0
62 205 -902 0
-62 205 902 0
62 -205 902 0
-62 -205 -902 0
902 348 -491 0
-902 348 491 0
902 -348 491 0
-902 -348 -491 0
348 -903 0
902 -903 0
-348 -902 903 0
205 -904 0
62 -904 0
-205 -62 904 0
-903 635 0
-904 635 0
903 904 -635 0
63 206 -905 0
-63 206 905 0
63 -206 905 0
-63 -206 -905 0
905 349 -492 0
-905 349 492 0
905 -349 492 0
-905 -349 -492 0
349 -906 0
905 -906 0
-349 -905 906 0
206 -907 0
63 -907 0
-206 -63 907 0
-906 636 0
-907 636 0
906 907 -636 0
64 207 -908 0
-64 207 908 0
64 -207 908 0
-64 -207 -908 0
908 350 -493 0
-908 350 493 0
908 -350 493 0
-908 -350 -493 0
350 -909 0
908 -909 0
-350 -908 909 0
207 -910 0
64 -910 0
-207 -64 910 0
-909 637 0
-910 637 0
909 910 -637 0
65 208 -911 0
-65 208 911 0
65 -208 911 0
-65 -208 -911 0
911 351 -494 0
-911 351 494 0
911 -351 494 0
-911 -351 -494 0
351 -912 0
911 -912 0
-351 -911 912 0
208 -913 0
65 -913 0
-208 -65 913 0
-912 638 0
-913 638 0
912 913 -638 0
66 209 -914 0
-66 209 914 0
66 -209 914 0
-66 -209 -914 0
914 352 -495 0
-914 352 495 0
914 -352 495 0
-914 -352 -495 0
352 -915 0
914 -915 0
-352 -914 915 0
209 -916 0
66 -916 0
-209 -66 916 0
-915 639 0
-916 639 0
915 916 -639 0
67 210 -917 0
-67 210 917 0
67 -210 917 0
-67 -210 -917 0
917 353 -496 0
-917 353 496 0
917 -353 496 0
-917 -353 -496 0
353 -918 0
917 -918 0
-353 -917 918 0
210 -919 0
67 -919 0
-210 -67 919 0
-918 640 0
-919 640 0
918 919 -640 0
68 211 -920 0
-68 211 920 0
68 -211 920 0
-68 -211 -920 0
920 354 -497 0
-920 354 497 0
920 -354 497 0
-920 -354 -497 0
354 -921 0
920 -921 0
-354 -920 921 0
211 -922 0
68 -922 0
-211 -68 922 0
-921 641 0
-922 641 0
921 922 -641 0
69 212 -923 0
-69 212 923 0
69 -212 923 0
-69 -212 -923 0
923 355 -498 0
-923 355 498 0
923 -355 498 0
-923 -355 -498 0
355 -924 0
923 -924 0
-355 -923 924 0
212 -925 0
69 -925 0
-212 -69 925 0
-924 642 0
-925 642 0
924 925 -642 0
70 213 -926 0
-70 213 926 0
70 -213 926 0
-70 -213 -926 0
926 356 -499 0
-926 356 499 0
926 -356 499 0
-926 -356 -499 0
356 -927 0
926 -927 0
-356 -926 927 0
213 -928 0
70 -928 0
-213 -70 928 0
-927 643 0
-928 643 0
927 928 -643 0
71 214 -929 0
-71 214 929 0
71 -214 929 0
-71 -214 -929 0
929 357 -500 0
-929 357 500 0
929 -357 500 0
-929 -357 -500 0
357 -930 0
929 -930 0
-357 -929 930 0
214 -931 0
71 -931 0
-214 -71 931 0
-930 644 0
-931 644 0
930 931 -644 0
72 215 -932 0
-72 215 932 0
72 -215 932 0
-72 -215 -932 0
932 358 -501 0
-932 358 501 0
932 -358 501 0
-932 -358 -501 0
358 -933 0
932 -933 0
-358 -932 933 0
215 -934 0
72 -934 0
-215 -72 934 0
-933 645 0
-934 645 0
933 934 -645 0
73 216 -935 0
-73 216 935 0
73 -216 935 0
-73 -216 -935 0
935 359 -502 0
-935 359 502 0
935 -359 502 0
-935 -359 -502 0
359 -936 0
935 -936 0
-359 -935 936 0
216 -937 0
73 -937 0
-216 -73 937 0
-936 646 0
-937 646 0
936 937 -646 0
74 217 -938 0
-74 217 938 0
74 -217 938 0
-74 -217 -938 0
938 360 -503 0
-938 360 503 0
938 -360 503 0
-938 -360 -503 0
360 -939 0
938 -939 0
-360 -938 939 0
217 -940 0
74 -940 0
-217 -74 940 0
-939 647 0
-940 647 0
939 940 -647 0
75 218 -941 0
-75 218 941 0
75 -218 941 0
-75 -218 -941 0
941 361 -504 0
-941 361 504 0
941 -361 504 0
-941 -361 -504 0
361 -942 0
941 -942 0
-361 -941 942 0
218 -943 0
75 -943 0
-218 -75 943 0
-942 648 0
-943 648 0
942 943 -648 0
76 219 -944 0
-76 219 944 0
76 -219 944 0
-76 -219 -944 0
944 362 -505 0
-944 362 505 0
944 -362 505 0
-944 -362 -505 0
362 -945 0
944 -945 0
-362 -944 945 0
219 -946 0
76 -946 0
-219 -76 946 0
-945 649 0
-946 649 0
945 946 -649 0
77 220 -947 0
-77 220 947 0
77 -220 947 0
-77 -220 -947 0
947 363 -506 0
-947 363 506 0
947 -363 506 0
-947 -363 -506 0
363 -948 0
947 -948 0
-363 -947 948 0
220 -949 0
77 -949 0
-220 -77 949 0
-948 650 0
-949 650 0
948 949 -650 0
78 221 -950 0
-78 221 950 0
78 -221 950 0
-78 -221 -950 0
950 364 -507 0
-950 364 507 0
950 -364 507 0
-950 -364 -507 0
364 -951 0
950 -951 0
-364 -950 951 0
221 -952 0
78 -952 0
-221 -78 952 0
-951 651 0
-952 651 0
951 952 -651 0
79 222 -953 0
-79 222 953 0
79 -222 953 0
-79 -222 -953 0
953 365 -508 0
-953 365 508 0
953 -365 508 0
-953 -365 -508 0
365 -954 0
953 -954 0
-365 -953 954 0
222 -955 0
79 -955 0
-222 -79 955 0
-954 652 0
-955 652 0
954 955 -652 0
80 223 -956 0
-80 223 956 0
80 -223 956 0
-80 -223 -956 0
956 366 -509 0
-956 366 509 0
956 -366 509 0
-956 -366 -509 0
366 -957 0
956 -957 0
-366 -956 957 0
223 -958 0
80 -958 0
-223 -80 958 0
-957 653 0
-958 653 0
957 958 -653 0
81 224 -959 0
-81 224 959 0
81 -224 959 0
-81 -224 -959 0
959 367 -510 0
-959 367 510 0
959 -367 510 0
-959 -367 -510 0
367 -960 0
959 -960 0
-367 -959 960 0
224 -961 0
81 -961 0
-224 -81 961 0
-960 654 0
-961 654 0
960 961 -654 0
82 225 -962 0
-82 225 962 0
82 -225 962 0
-82 -225 -962 0
962 368 -511 0
-962 368 511 0
962 -368 511 0
-962 -368 -511 0
368 -963 0
962 -963 0
-368 -962 963 0
225 -964 0
82 -964 0
-225 -82 964 0
-963 655 0
-964 655 0
963 964 -655 0
83 226 -965 0
-83 226 965 0
83 -226 965 0
-83 -226 -965 0
965 369 -512 0
-965 369 512 0
965 -369 512 0
-965 -369 -512 0
369 -966 0
965 -966 0
-369 -965 966 0
226 -967 0
83 -967 0
-226 -83 967 0
-966 656 0
-967 656 0
966 967 -656 0
84 227 -968 0
-84 227 968 0
84 -227 968 0
-84 -227 -968 0
968 370 -513 0
-968 370 513 0
968 -370 513 0
-968 -370 -513 0
370 -969 0
968 -969 0
-370 -968 969 0
227 -970 0
84 -970 0
-227 -84 970 0
-969 657 0
-970 657 0
969 970 -657 0
85 228 -971 0
-85 228 971 0
85 -228 971 0
-85 -228 -971 0
971 371 -514 0
-971 371 514 0
971 -371 514 0
-971 -371 -514 0
371 -972 0
971 -972 0
-371 -971 972 0
228 -973 0
85 -973 0
-228 -85 973 0
-972 658 0
-973 658 0
972 973 -658 0
86 229 -974 0
-86 229 974 0
86 -229 974 0
-86 -229 -974 0
974 372 -515 0
-974 372 515 0
974 -372 515 0
-974 -372 -515 0
372 -975 0
974 -975 0
-372 -974 975 0
229 -976 0
86 -976 0
-229 -86 976 0
-975 659 0
-976 659 0
975 976 -659 0
87 230 -977 0
-87 230 977 0
87 -230 977 0
-87 -230 -977 0
977 373 -516 0
-977 373 516 0
977 -373 516 0
-977 -373 -516 0
373 -978 0
977 -978 0
-373 -977 978 0
230 -979 0
87 -979 0
-230 -87 979 0
-978 660 0
-979 660 0
978 979 -660 0
88 231 -980 0
-88 231 980 0
88 -231 980 0
-88 -231 -980 0
980 374 -517 0
-980 374 517 0
980 -374 517 0
-980 -374 -517 0
374 -981 0
980 -981 0
-374 -980 981 0
231 -982 0
88 -982 0
-231 -88 982 0
-981 661 0
-982 661 0
981 982 -661 0
89 232 -983 0
-89 232 983 0
89 -232 983 0
-89 -232 -983 0
983 375 -518 0
-983 375 518 0
983 -375 518 0
-983 -375 -518 0
375 -984 0
983 -984 0
-375 -983 984 0
232 -985 0
89 -985 0
-232 -89 985 0
-984 662 0
-985 662 0
984 985 -662 0
90 233 -986 0
-90 233 986 0
90 -233 986 0
-90 -233 -986 0
986 376 -519 0
-986 376 519 0
986 -376 519 0
-986 -376 -519 0
376 -987 0
986 -987 0
-376 -986 987 0
233 -988 0
90 -988 0
-233 -90 988 0
-987 663 0
-988 663 0
987 988 -663 0
91 234 -989 0
-91 234 989 0
91 -234 989 0
-91 -234 -989 0
989 377 -520 0
-989 377 520 0
989 -377 520 0
-989 -377 -520 0
377 -990 0
989 -990 0
-377 -989 990 0
234 -991 0
91 -991 0
-234 -91 991 0
-990 664 0
-991 664 0
990 991 -664 0
92 235 -992 0
-92 235 992 0
92 -235 992 0
-92 -235 -992 0
992 378 -521 0
-992 378 521 0
992 -378 521 0
-992 -378 -521 0
378 -993 0
992 -993 0
-378 -992 993 0
235 -994 0
92 -994 0
-235 -92 994 0
-993 665 0
-994 665 0
993 994 -665 0
93 236 -995 0
-93 236 995 0
93 -236 995 0
-93 -236 -995 0
995 379 -522 0
-995 379 522 0
995 -379 522 0
-995 -379 -522 0
379 -996 0
995 -996 0
-379 -995 996 0
236 -997 0
93 -997 0
-236 -93 997 0
-996 666 0
-997 666 0
996 997 -666 0
94 237 -998 0
-94 237 998 0
94 -237 998 0
-94 -237 -998 0
998 380 -523 0
-998 380 523 0
998 -380 523 0
-998 -380 -523 0
380 -999 0
998 -999 0
-380 -998 999 0
237 -1000 0
94 -1000 0
-237 -94 1000 0
-999 667 0
-1000 667 0
999 1000 -667 0
95 238 -1001 0
-95 238 1001 0
95 -238 1001 0
-95 -238 -1001 0
1001 381 -524 0
-1001 381 524 0
1001 -381 524 0
-1001 -381 -524 0
381 -1002 0
1001 -1002 0
-381 -1001 1002 0
238 -1003 0
95 -1003 0
-238 -95 1003 0
-1002 668 0
-1003 668 0
1002 1003 -668 0
96 239 -1004 0
-96 239 1004 0
96 -239 1004 0
-96 -239 -1004 0
1004 382 -525 0
-1004 382 525 0
1004 -382 525 0
-1004 -382 -525 0
382 -1005 0
1004 -1005 0
-382 -1004 1005 0
239 -1006 0
96 -1006 0
-239 -96 1006 0
-1005 669 0
-1006 669 0
1005 1006 -669 0
97 240 -1007 0
-97 240 1007 0
97 -240 1007 0
-97 -240 -1007 0
1007 383 -526 0
-1007 383 526 0
1007 -383 526 0
-1007 -383 -526 0
383 -1008 0
1007 -1008 0
-383 -1007 1008 0
240 -1009 0
97 -1009 0
-240 -97 1009 0
-1008 670 0
-1009 670 0
1008 1009 -670 0
98 241 -1010 0
-98 241 1010 0
98 -241 1010 0
-98 -241 -1010 0
1010 384 -527 0
-1010 384 527 0
1010 -384 527 0
-1010 -384 -527 0
384 -1011 0
1010 -1011 0
-384 -1010 1011 0
241 -1012 0
98 -1012 0
-241 -98 1012 0
-1011 671 0
-1012 671 0
1011 1012 -671 0
99 242 -1013 0
-99 242 1013 0
99 -242 1013 0
-99 -242 -1013 0
1013 385 -528 0
-1013 385 528 0
1013 -385 528 0
-1013 -385 -528 0
385 -1014 0
1013 -1014 0
-385 -1013 1014 0
242 -1015 0
99 -1015 0
-242 -99 1015 0
-1014 672 0
-1015 672 0
1014 1015 -672 0
100 243 -1016 0
-100 243 1016 0
100 -243 1016 0
-100 -243 -1016 0
1016 386 -529 0
-1016 386 529 0
1016 -386 529 0
-1016 -386 -529 0
386 -1017 0
1016 -1017 0
-386 -1016 1017 0
243 -1018 0
100 -1018 0
-243 -100 1018 0
-1017 673 0
-1018 673 0
1017 1018 -673 0
101 244 -1019 0
-101 244 1019 0
101 -244 1019 0
-101 -244 -1019 0
1019 387 -530 0
-1019 387 530 0
1019 -387 530 0
-1019 -387 -530 0
387 -1020 0
1019 -1020 0
-387 -1019 1020 0
244 -1021 0
101 -1021 0
-244 -101 1021 0
-1020 674 0
-1021 674 0
1020 1021 -674 0
102 245 -1022 0
-102 245 1022 0
102 -245 1022 0
-102 -245 -1022 0
1022 388 -531 0
-1022 388 531 0
1022 -388 531 0
-1022 -388 -531 0
388 -1023 0
1022 -1023 0
-388 -1022 1023 0
245 -1024 0
102 -1024 0
-245 -102 1024 0
-1023 675 0
-1024 675 0
1023 1024 -675 0
103 246 -1025 0
-103 246 1025 0
103 -246 1025 0
-103 -246 -1025 0
1025 389 -532 0
-1025 389 532 0
1025 -389 532 0
-1025 -389 -532 0
389 -1026 0
1025 -1026 0
-389 -1025 1026 0
246 -1027 0
103 -1027 0
-246 -103 1027 0
-1026 676 0
-1027 676 0
1026 1027 -676 0
104 247 -1028 0
-104 247 1028 0
104 -247 1028 0
-104 -247 -1028 0
1028 390 -533 0
-1028 390 533 0
1028 -390 533 0
-1028 -390 -533 0
390 -1029 0
1028 -1029 0
-390 -1028 1029 0
247 -1030 0
104 -1030 0
-247 -104 1030 0
-1029 677 0
-1030 677 0
1029 1030 -677 0
105 248 -1031 0
-105 248 1031 0
105 -248 1031 0
-105 -248 -1031 0
1031 391 -534 0
-1031 391 534 0
1031 -391 534 0
-1031 -391 -534 0
391 -1032 0
1031 -1032 0
-391 -1031 1032 0
248 -1033 0
105 -1033 0
-248 -105 1033 0
-1032 678 0
-1033 678 0
1032 1033 -678 0
106 249 -1034 0
-106 249 1034 0
106 -249 1034 0
-106 -249 -1034 0
1034 392 -535 0
-1034 392 535 0
1034 -392 535 0
-1034 -392 -535 0
392 -1035 0
1034 -1035 0
-392 -1034 1035 0
249 -1036 0
106 -1036 0
-249 -106 1036 0
-1035 679 0
-1036 679 0
1035 1036 -679 0
107 250 -1037 0
-107 250 1037 0
107 -250 1037 0
-107 -250 -1037 0
1037 393 -536 0
-1037 393 536 0
1037 -393 536 0
-1037 -393 -536 0
393 -1038 0
1037 -1038 0
-393 -1037 1038 0
250 -1039 0
107 -1039 0
-250 -107 1039 0
-1038 680 0
-1039 680 0
1038 1039 -680 0
108 251 -1040 0
-108 251 1040 0
108 -251 1040 0
-108 -251 -1040 0
1040 394 -537 0
-1040 394 537 0
1040 -394 537 0
-1040 -394 -537 0
394 -1041 0
1040 -1041 0
-394 -1040 1041 0
251 -1042 0
108 -1042 0
-251 -108 1042 0
-1041 681 0
-1042 681 0
1041 1042 -681 0
109 252 -1043 0
-109 252 1043 0
109 -252 1043 0
-109 -252 -1043 0
1043 395 -538 0
-1043 395 538 0
1043 -395 538 0
-1043 -395 -538 0
395 -1044 0
1043 -1044 0
-395 -1043 1044 0
252 -1045 0
109 -1045 0
-252 -109 1045 0
-1044 682 0
-1045 682 0
1044 1045 -682 0
110 253 -1046 0
-110 253 1046 0
110 -253 1046 0
-110 -253 -1046 0
1046 396 -539 0
-1046 396 539 0
1046 -396 539 0
-1046 -396 -539 0
396 -1047 0
1046 -1047 0
-396 -1046 1047 0
253 -1048 0
110 -1048 0
-253 -110 1048 0
-1047 683 0
-1048 683 0
1047 1048 -683 0
111 254 -1049 0
-111 254 1049 0
111 -254 1049 0
-111 -254 -1049 0
1049 397 -540 0
-1049 397 540 0
1049 -397 540 0
-1049 -397 -540 0
397 -1050 0
1049 -1050 0
-397 -1049 1050 0
254 -1051 0
111 -1051 0
-254 -111 1051 0
-1050 684 0
-1051 684 0
1050 1051 -684 0
112 255 -1052 0
-112 255 1052 0
112 -255 1052 0
-112 -255 -1052 0
1052 398 -541 0
-1052 398 541 0
1052 -398 541 0
-1052 -398 -541 0
398 -1053 0
1052 -1053 0
-398 -1052 1053 0
255 -1054 0
112 -1054 0
-255 -112 1054 0
-1053 685 0
-1054 685 0
1053 1054 -685 0
113 256 -1055 0
-113 256 1055 0
113 -256 1055 0
-113 -256 -1055 0
1055 399 -542 0
-1055 399 542 0
1055 -399 542 0
-1055 -399 -542 0
399 -1056 0
1055 -1056 0
-399 -1055 1056 0
256 -1057 0
113 -1057 0
-256 -113 1057 0
-1056 686 0
-1057 686 0
1056 1057 -686 0
114 257 -1058 0
-114 257 1058 0
114 -257 1058 0
-114 -257 -1058 0
1058 400 -543 0
-1058 400 543 0
1058 -400 543 0
-1058 -400 -543 0
400 -1059 0
1058 -1059 0
-400 -1058 1059 0
257 -1060 0
114 -1060 0
-257 -114 1060 0
-1059 687 0
-1060 687 0
1059 1060 -687 0
115 258 -1061 0
-115 258 1061 0
115 -258 1061 0
-115 -258 -1061 0
1061 401 -544 0
-1061 401 544 0
1061 -401 544 0
-1061 -401 -544 0
401 -1062 0
1061 -1062 0
-401 -1061 1062 0
258 -1063 0
115 -1063 0
-258 -115 1063 0
-1062 688 0
-1063 688 0
1062 1063 -688 0
116 259 -1064 0
-116 259 1064 0
116 -259 1064 0
-116 -259 -1064 0
1064 402 -545 0
-1064 402 545 0
1064 -402 545 0
-1064 -402 -545 0
402 -1065 0
1064 -1065 0
-402 -1064 1065 0
259 -1066 0
116 -1066 0
-259 -116 1066 0
-1065 689 0
-1066 689 0
1065 1066 -689 0
117 260 -1067 0
-117 260 1067 0
117 -260 1067 0
-117 -260 -1067 0
1067 403 -546 0
-1067 403 546 0
1067 -403 546 0
-1067 -403 -546 0
403 -1068 0
1067 -1068 0
-403 -1067 1068 0
260 -1069 0
117 -1069 0
-260 -117 1069 0
-1068 690 0
-1069 690 0
1068 1069 -690 0
118 261 -1070 0
-118 261 1070 0
118 -261 1070 0
-118 -261 -1070 0
1070 404 -547 0
-1070 404 547 0
1070 -404 547 0
-1070 -404 -547 0
404 -1071 0
1070 -1071 0
-404 -1070 1071 0
261 -1072 0
118 -1072 0
-261 -118 1072 0
-1071 691 0
-1072 691 0
1071 1072 -691 0
119 262 -1073 0
-119 262 1073 0
119 -262 1073 0
-119 -262 -1073 0
1073 405 -548 0
-1073 405 548 0
1073 -405 548 0
-1073 -405 -548 0
405 -1074 0
1073 -1074 0
-405 -1073 1074 0
262 -1075 0
119 -1075 0
-262 -119 1075 0
-1074 692 0
-1075 692 0
1074 1075 -692 0
120 263 -1076 0
-120 263 1076 0
120 -263 1076 0
-120 -263 -1076 0
1076 406 -549 0
-1076 406 549 0
1076 -406 549 0
-1076 -406 -549 0
406 -1077 0
1076 -1077 0
-406 -1076 1077 0
263 -1078 0
120 -1078 0
-263 -120 1078 0
-1077 693 0
-1078 693 0
1077 1078 -693 0
121 264 -1079 0
-121 264 1079 0
121 -264 1079 0
-121 -264 -1079 0
1079 407 -550 0
-1079 407 550 0
1079 -407 550 0
-1079 -407 -550 0
407 -1080 0
1079 -1080 0
-407 -1079 1080 0
264 -1081 0
121 -1081 0
-264 -121 1081 0
-1080 694 0
-1081 694 0
1080 1081 -694 0
122 265 -1082 0
-122 265 1082 0
122 -265 1082 0
-122 -265 -1082 0
1082 408 -551 0
-1082 408 551 0
1082 -408 551 0
-1082 -408 -551 0
408 -1083 0
1082 -1083 0
-408 -1082 1083 0
265 -1084 0
122 -1084 0
-265 -122 1084 0
-1083 695 0
-1084 695 0
1083 1084 -695 0
123 266 -1085 0
-123 266 1085 0
123 -266 1085 0
-123 -266 -1085 0
1085 409 -552 0
-1085 409 552 0
1085 -409 552 0
-1085 -409 -552 0
409 -1086 0
1085 -1086 0
-409 -1085 1086 0
266 -1087 0
123 -1087 0
-266 -123 1087 0
-1086 696 0
-1087 696 0
1086 1087 -696 0
124 267 -1088 0
-124 267 1088 0
124 -267 1088 0
-124 -267 -1088 0
1088 410 -553 0
-1088 410 553 0
1088 -410 553 0
-1088 -410 -553 0
410 -1089 0
1088 -1089 0
-410 -1088 1089 0
267 -1090 0
124 -1090 0
-267 -124 1090 0
-1089 697 0
-1090 697 0
1089 1090 -697 0
125 268 -1091 0
-125 268 1091 0
125 -268 1091 0
-125 -268 -1091 0
1091 411 -554 0
-1091 411 554 0
1091 -411 554 0
-1091 -411 -554 0
411 -1092 0
1091 -1092 0
-411 -1091 1092 0
268 -1093 0
125 -1093 0
-268 -125 1093 0
-1092 698 0
-1093 698 0
1092 1093 -698 0
126 269 -1094 0
-126 269 1094 0
126 -269 1094 0
-126 -269 -1094 0
1094 412 -555 0
-1094 412 555 0
1094 -412 555 0
-1094 -412 -555 0
412 -1095 0
1094 -1095 0
-412 -1094 1095 0
269 -1096 0
126 -1096 0
-269 -126 1096 0
-1095 699 0
-1096 699 0
1095 1096 -699 0
127 270 -1097 0
-127 270 1097 0
127 -270 1097 0
-127 -270 -1097 0
1097 413 -556 0
-1097 413 556 0
1097 -413 556 0
-1097 -413 -556 0
413 -1098 0
1097 -1098 0
-413 -1097 1098 0
270 -1099 0
127 -1099 0
-270 -127 1099 0
-1098 700 0
-1099 700 0
1098 1099 -700 0
128 271 -1100 0
-128 271 1100 0
128 -271 1100 0
-128 -271 -1100 0
1100 414 -557 0
-1100 414 557 0
1100 -414 557 0
-1100 -414 -557 0
414 -1101 0
1100 -1101 0
-414 -1100 1101 0
271 -1102 0
128 -1102 0
-271 -128 1102 0
-1101 701 0
-1102 701 0
1101 1102 -701 0
129 272 -1103 0
-129 272 1103 0
129 -272 1103 0
-129 -272 -1103 0
1103 415 -558 0
-1103 415 558 0
1103 -415 558 0
-1103 -415 -558 0
415 -1104 0
1103 -1104 0
-415 -1103 1104 0
272 -1105 0
129 -1105 0
-272 -129 1105 0
-1104 702 0
-1105 702 0
1104 1105 -702 0
130 273 -1106 0
-130 273 1106 0
130 -273 1106 0
-130 -273 -1106 0
1106 416 -559 0
-1106 416 559 0
1106 -416 559 0
-1106 -416 -559 0
416 -1107 0
1106 -1107 0
-416 -1106 1107 0
273 -1108 0
130 -1108 0
-273 -130 1108 0
-1107 703 0
-1108 703 0
1107 1108 -703 0
131 274 -1109 0
-131 274 1109 0
131 -274 1109 0
-131 -274 -1109 0
1109 417 -560 0
-1109 417 560 0
1109 -417 560 0
-1109 -417 -560 0
417 -1110 0
1109 -1110 0
-417 -1109 1110 0
274 -1111 0
131 -1111 0
-274 -131 1111 0
-1110 704 0
-1111 704 0
1110 1111 -704 0
132 275 -1112 0
-132 275 1112 0
132 -275 1112 0
-132 -275 -1112 0
1112 418 -561 0
-1112 418 561 0
1112 -418 561 0
-1112 -418 -561 0
418 -1113 0
1112 -1113 0
-418 -1112 1113 0
275 -1114 0
132 -1114 0
-275 -132 1114 0
-1113 705 0
-1114 705 0
1113 1114 -705 0
133 276 -1115 0
-133 276 1115 0
133 -276 1115 0
-133 -276 -1115 0
1115 419 -562 0
-1115 419 562 0
1115 -419 562 0
-1115 -419 -562 0
419 -1116 0
1115 -1116 0
-419 -1115 1116 0
276 -1117 0
133 -1117 0
-276 -133 1117 0
-1116 706 0
-1117 706 0
1116 1117 -706 0
134 277 -1118 0
-134 277 1118 0
134 -277 1118 0
-134 -277 -1118 0
1118 420 -563 0
-1118 420 563 0
1118 -420 563 0
-1118 -420 -563 0
420 -1119 0
1118 -1119 0
-420 -1118 1119 0
277 -1120 0
134 -1120 0
-277 -134 1120 0
-1119 707 0
-1120 707 0
1119 1120 -707 0
135 278 -1121 0
-135 278 1121 0
135 -278 1121 0
-135 -278 -1121 0
1121 421 -564 0
-1121 421 564 0
1121 -421 564 0
-1121 -421 -564 0
421 -1122 0
1121 -1122 0
-421 -1121 1122 0
278 -1123 0
135 -1123 0
-278 -135 1123 0
-1122 708 0
-1123 708 0
1122 1123 -708 0
136 279 -1124 0
-136 279 1124 0
136 -279 1124 0
-136 -279 -1124 0
1124 422 -565 0
-1124 422 565 0
1124 -422 565 0
-1124 -422 -565 0
422 -1125 0
1124 -1125 0
-422 -1124 1125 0
279 -1126 0
136 -1126 0
-279 -136 1126 0
-1125 709 0
-1126 709 0
1125 1126 -709 0
137 280 -1127 0
-137 280 1127 0
137 -280 1127 0
-137 -280 -1127 0
1127 423 -566 0
-1127 423 566 0
1127 -423 566 0
-1127 -423 -566 0
423 -1128 0
1127 -1128 0
-423 -1127 1128 0
280 -1129 0
137 -1129 0
-280 -137 1129 0
-1128 710 0
-1129 710 0
1128 1129 -710 0
138 281 -1130 0
-138 281 1130 0
138 -281 1130 0
-138 -281 -1130 0
1130 424 -567 0
-1130 424 567 0
1130 -424 567 0
-1130 -424 -567 0
424 -1131 0
1130 -1131 0
-424 -1130 1131 0
281 -1132 0
138 -1132 0
-281 -138 1132 0
-1131 711 0
-1132 711 0
1131 1132 -711 0
139 282 -1133 0
-139 282 1133 0
139 -282 1133 0
-139 -282 -1133 0
1133 425 -568 0
-1133 425 568 0
1133 -425 568 0
-1133 -425 -568 0
425 -1134 0
1133 -1134 0
-425 -1133 1134 0
282 -1135 0
139 -1135 0
-282 -139 1135 0
-1134 712 0
-1135 712 0
1134 1135 -712 0
140 283 -1136 0
-140 283 1136 0
140 -283 1136 0
-140 -283 -1136 0
1136 426 -569 0
-1136 426 569 0
1136 -426 569 0
-1136 -426 -569 0
426 -1137 0
1136 -1137 0
-426 -1136 1137 0
283 -1138 0
140 -1138 0
-283 -140 1138 0
-1137 713 0
-1138 713 0
1137 1138 -713 0
141 284 -1139 0
-141 284 1139 0
141 -284 1139 0
-141 -284 -1139 0
1139 427 -570 0
-1139 427 570 0
1139 -427 570 0
-1139 -427 -570 0
427 -1140 0
1139 -1140 0
-427 -1139 1140 0
284 -1141 0
141 -1141 0
-284 -141 1141 0
-1140 714 0
-1141 714 0
1140 1141 -714 0
142 285 -1142 0
-142 285 1142 0
142 -285 1142 0
-142 -285 -1142 0
1142 428 -571 0
-1142 428 571 0
1142 -428 571 0
-1142 -428 -571 0
428 -1143 0
1142 -1143 0
-428 -1142 1143 0
285 -1144 0
142 -1144 0
-285 -142 1144 0
-1143 715 0
-1144 715 0
1143 1144 -715 0
143 286 -1145 0
-143 286 1145 0
143 -286 1145 0
-143 -286 -1145 0
1145 429 -572 0
-1145 429 572 0
1145 -429 572 0
-1145 -429 -572 0
429 -1146 0
1145 -1146 0
-429 -1145 1146 0
286 -1147 0
143 -1147 0
-286 -143 1147 0
-1146 716 0
-1147 716 0
1146 1147 -716 0
